(set-info :status unsat)
(declare-const symbol_10 (_ BitVec 32))
(declare-const symbol_4 (_ BitVec 32))
(declare-const symbol_0 (_ BitVec 32))
(declare-const symbol_6 (_ BitVec 32))
(declare-const symbol_2 (_ BitVec 32))
(declare-const symbol_13 (_ BitVec 32))
(declare-const symbol_8 (_ BitVec 32))
(assert (= symbol_13 (_ bv11 32)))
(assert (not (not (= symbol_13 (_ bv6 32)))))
(assert (not (not (= symbol_10 (_ bv6 32)))))
(assert (not (not (= symbol_8 (_ bv6 32)))))
(assert (not (not (= symbol_6 (_ bv6 32)))))
(assert (not (not (= symbol_4 (_ bv6 32)))))
(assert (not (not (= symbol_2 (_ bv6 32)))))
(assert (not (not (= symbol_0 (_ bv6 32)))))
(check-sat)